param travelTime := 
[*,*,1]: 
	1		2		3	 := 
0	0	6	2	
1	0	6	2	
2	0	6	2	
3	0	6	2	
4	0	6	2	
5	0	6	2	
6	0	6	2	
7	0	6	2	
8	0	6	2	
9	0	6	2	
10	0	6	2	
11	0	6	2	
12	0	6	2	
13	0	6	2	
14	0	6	2	
15	0	6	2	
16	0	6	2	
17	0	6	2	
18	0	6	2	
19	0	6	2	
20	0	6	2	
21	0	6	2	
22	0	6	2	
23	0	6	2	
24	0	6	2	
25	0	6	2	
26	0	6	2	
27	0	6	2	
28	0	6	2	
29	0	6	2	
30	0	6	2	
31	0	6	2	
32	0	6	2	
33	0	6	2	
34	0	6	2	
35	0	6	2	
36	0	6	2	
37	0	6	2	
38	0	6	2	
39	0	6	2	
40	0	6	2	
41	0	6	2	
42	0	6	2	
43	0	6	2	
44	0	6	2	
45	0	6	2	
46	0	6	2	
47	0	6	2	
48	0	6	2	
49	0	6	2	
50	0	6	2	
51	0	6	2	
52	0	6	2	
53	0	6	2	
54	0	6	2	
55	0	6	2	
56	0	6	2	
57	0	6	2	
58	0	6	2	
59	0	6	2	
60	0	6	2	
61	0	6	2	
62	0	6	2	
63	0	6	2	
64	0	6	2	
65	0	6	2	
66	0	6	2	
67	0	6	2	
68	0	6	2	
69	0	6	2	
70	0	6	2	
71	0	6	2	
72	0	6	2	
73	0	6	2	
74	0	6	2	
75	0	6	2	
76	0	6	2	
77	0	6	2	
78	0	6	2	
79	0	6	2	
80	0	6	2	
81	0	6	2	
82	0	6	2	
83	0	6	2	
84	0	6	2	
85	0	6	2	
86	0	6	2	
87	0	6	2	
88	0	6	2	
89	0	6	2	
90	0	6	2	
91	0	6	2	
92	0	6	2	
93	0	6	2	
94	0	6	2	
95	0	6	2	
96	0	6	2	
97	0	6	2	
98	0	6	2	
99	0	6	2	
100	0	6	2	
101	0	6	2	
102	0	6	2	
103	0	6	2	
104	0	6	2	
105	0	6	2	
106	0	6	2	
107	0	6	2	
108	0	6	2	
109	0	6	2	
110	0	6	2	
111	0	6	2	
112	0	6	2	
113	0	6	2	
114	0	6	2	
115	0	6	2	
116	0	6	2	
117	0	6	2	
118	0	6	2	
119	0	6	2	
120	0	6	2	
121	0	6	2	
122	0	6	2	
123	0	6	2	
124	0	6	2	
125	0	6	2	
126	0	6	2	
127	0	6	2	
128	0	6	2	
129	0	6	2	
130	0	6	2	
131	0	6	2	
132	0	6	2	
133	0	6	2	
134	0	6	2	
135	0	6	2	
136	0	6	2	
137	0	6	2	
138	0	6	2	
139	0	6	2	
140	0	6	2	
141	0	6	2	
142	0	6	2	
143	0	6	2	
144	0	6	2	
145	0	6	2	
146	0	6	2	
147	0	6	2	
148	0	6	2	
149	0	6	2	
150	0	6	2	
151	0	6	2	
152	0	6	2	
153	0	6	2	
154	0	6	2	
155	0	6	2	
156	0	6	2	
157	0	6	2	
158	0	6	2	
159	0	6	2	
160	0	6	2	
161	0	6	2	
162	0	6	2	
163	0	6	2	
164	0	6	2	
165	0	6	2	
166	0	6	2	
167	0	6	2	
168	0	6	2	
169	0	6	2	
170	0	6	2	
171	0	6	2	
172	0	6	2	
173	0	6	2	
174	0	6	2	
175	0	6	2	
176	0	6	2	
177	0	6	2	
178	0	6	2	
179	0	6	2	
180	0	6	2	
181	0	6	2	
182	0	6	2	
183	0	6	2	
184	0	6	2	
185	0	6	2	
186	0	6	2	
187	0	6	2	
188	0	6	2	
189	0	6	2	
190	0	6	2	
191	0	6	2	
192	0	6	2	
193	0	6	2	
194	0	6	2	
195	0	6	2	
196	0	6	2	
197	0	6	2	
198	0	6	2	
199	0	6	2	
200	0	6	2	
201	0	6	2	
202	0	6	2	
203	0	6	2	
204	0	6	2	
205	0	6	2	
206	0	6	2	
207	0	6	2	
208	0	6	2	
209	0	6	2	
210	0	6	2	
211	0	6	2	
212	0	6	2	
213	0	6	2	
214	0	6	2	
215	0	6	2	
216	0	6	2	
217	0	6	2	
218	0	6	2	
219	0	6	2	
220	0	6	2	
221	0	6	2	
222	0	6	2	
223	0	6	2	
224	0	6	2	
225	0	6	2	
226	0	6	2	
227	0	6	2	
228	0	6	2	
229	0	6	2	
230	0	6	2	
231	0	6	2	
232	0	6	2	
233	0	6	2	
234	0	6	2	
235	0	6	2	
236	0	6	2	
237	0	6	2	
238	0	6	2	
239	0	6	2	
240	0	6	2	
241	0	6	2	
242	0	6	2	
243	0	6	2	
244	0	6	2	
245	0	6	2	
246	0	6	2	
247	0	6	2	
248	0	6	2	
249	0	6	2	
250	0	6	2	
251	0	6	2	
252	0	6	2	
253	0	6	2	
254	0	6	2	
255	0	6	2	
256	0	6	2	
257	0	6	2	
258	0	6	2	
259	0	6	2	
260	0	6	2	
261	0	6	2	
262	0	6	2	
263	0	6	2	
264	0	6	2	
265	0	6	2	
266	0	6	2	
267	0	6	2	
268	0	6	2	
269	0	6	2	
270	0	6	2	
271	0	6	2	
272	0	6	2	
273	0	6	2	
274	0	6	2	
275	0	6	2	
276	0	6	2	
277	0	6	2	
278	0	6	2	
279	0	6	2	
280	0	6	2	
281	0	6	2	
282	0	6	2	
283	0	6	2	
284	0	6	2	
285	0	6	2	
286	0	6	2	
287	0	6	2	
[*,*,2]: 
	1		2		3	 := 
0	6	0	6	
1	6	0	6	
2	6	0	6	
3	6	0	6	
4	6	0	6	
5	6	0	6	
6	6	0	6	
7	6	0	6	
8	6	0	6	
9	6	0	6	
10	6	0	6	
11	6	0	6	
12	6	0	6	
13	6	0	6	
14	6	0	6	
15	6	0	6	
16	6	0	6	
17	6	0	6	
18	6	0	6	
19	6	0	6	
20	6	0	6	
21	6	0	6	
22	6	0	6	
23	6	0	6	
24	6	0	6	
25	6	0	6	
26	6	0	6	
27	6	0	6	
28	6	0	6	
29	6	0	6	
30	6	0	6	
31	6	0	6	
32	6	0	6	
33	6	0	6	
34	6	0	6	
35	6	0	6	
36	6	0	6	
37	6	0	6	
38	6	0	6	
39	6	0	6	
40	6	0	6	
41	6	0	6	
42	6	0	6	
43	6	0	6	
44	6	0	6	
45	6	0	6	
46	6	0	6	
47	6	0	6	
48	6	0	6	
49	6	0	6	
50	6	0	6	
51	6	0	6	
52	6	0	6	
53	6	0	6	
54	6	0	6	
55	6	0	6	
56	6	0	6	
57	6	0	6	
58	6	0	6	
59	6	0	6	
60	6	0	6	
61	6	0	6	
62	6	0	6	
63	6	0	6	
64	6	0	6	
65	6	0	6	
66	6	0	6	
67	6	0	6	
68	6	0	6	
69	6	0	6	
70	6	0	6	
71	6	0	6	
72	6	0	6	
73	6	0	6	
74	6	0	6	
75	6	0	6	
76	6	0	6	
77	6	0	6	
78	6	0	6	
79	6	0	6	
80	6	0	6	
81	6	0	6	
82	6	0	6	
83	6	0	6	
84	6	0	6	
85	6	0	6	
86	6	0	6	
87	6	0	6	
88	6	0	6	
89	6	0	6	
90	6	0	6	
91	6	0	6	
92	6	0	6	
93	6	0	6	
94	6	0	6	
95	6	0	6	
96	6	0	6	
97	6	0	6	
98	6	0	6	
99	6	0	6	
100	6	0	6	
101	6	0	6	
102	6	0	6	
103	6	0	6	
104	6	0	6	
105	6	0	6	
106	6	0	6	
107	6	0	6	
108	6	0	6	
109	6	0	6	
110	6	0	6	
111	6	0	6	
112	6	0	6	
113	6	0	6	
114	6	0	6	
115	6	0	6	
116	6	0	6	
117	6	0	6	
118	6	0	6	
119	6	0	6	
120	6	0	6	
121	6	0	6	
122	6	0	6	
123	6	0	6	
124	6	0	6	
125	6	0	6	
126	6	0	6	
127	6	0	6	
128	6	0	6	
129	6	0	6	
130	6	0	6	
131	6	0	6	
132	6	0	6	
133	6	0	6	
134	6	0	6	
135	6	0	6	
136	6	0	6	
137	6	0	6	
138	6	0	6	
139	6	0	6	
140	6	0	6	
141	6	0	6	
142	6	0	6	
143	6	0	6	
144	6	0	6	
145	6	0	6	
146	6	0	6	
147	6	0	6	
148	6	0	6	
149	6	0	6	
150	6	0	6	
151	6	0	6	
152	6	0	6	
153	6	0	6	
154	6	0	6	
155	6	0	6	
156	6	0	6	
157	6	0	6	
158	6	0	6	
159	6	0	6	
160	6	0	6	
161	6	0	6	
162	6	0	6	
163	6	0	6	
164	6	0	6	
165	6	0	6	
166	6	0	6	
167	6	0	6	
168	6	0	6	
169	6	0	6	
170	6	0	6	
171	6	0	6	
172	6	0	6	
173	6	0	6	
174	6	0	6	
175	6	0	6	
176	6	0	6	
177	6	0	6	
178	6	0	6	
179	6	0	6	
180	6	0	6	
181	6	0	6	
182	6	0	6	
183	6	0	6	
184	6	0	6	
185	6	0	6	
186	6	0	6	
187	6	0	6	
188	6	0	6	
189	6	0	6	
190	6	0	6	
191	6	0	6	
192	6	0	6	
193	6	0	6	
194	6	0	6	
195	6	0	6	
196	6	0	6	
197	6	0	6	
198	6	0	6	
199	6	0	6	
200	6	0	6	
201	6	0	6	
202	6	0	6	
203	6	0	6	
204	6	0	6	
205	6	0	6	
206	6	0	6	
207	6	0	6	
208	6	0	6	
209	6	0	6	
210	6	0	6	
211	6	0	6	
212	6	0	6	
213	6	0	6	
214	6	0	6	
215	6	0	6	
216	6	0	6	
217	6	0	6	
218	6	0	6	
219	6	0	6	
220	6	0	6	
221	6	0	6	
222	6	0	6	
223	6	0	6	
224	6	0	6	
225	6	0	6	
226	6	0	6	
227	6	0	6	
228	6	0	6	
229	6	0	6	
230	6	0	6	
231	6	0	6	
232	6	0	6	
233	6	0	6	
234	6	0	6	
235	6	0	6	
236	6	0	6	
237	6	0	6	
238	6	0	6	
239	6	0	6	
240	6	0	6	
241	6	0	6	
242	6	0	6	
243	6	0	6	
244	6	0	6	
245	6	0	6	
246	6	0	6	
247	6	0	6	
248	6	0	6	
249	6	0	6	
250	6	0	6	
251	6	0	6	
252	6	0	6	
253	6	0	6	
254	6	0	6	
255	6	0	6	
256	6	0	6	
257	6	0	6	
258	6	0	6	
259	6	0	6	
260	6	0	6	
261	6	0	6	
262	6	0	6	
263	6	0	6	
264	6	0	6	
265	6	0	6	
266	6	0	6	
267	6	0	6	
268	6	0	6	
269	6	0	6	
270	6	0	6	
271	6	0	6	
272	6	0	6	
273	6	0	6	
274	6	0	6	
275	6	0	6	
276	6	0	6	
277	6	0	6	
278	6	0	6	
279	6	0	6	
280	6	0	6	
281	6	0	6	
282	6	0	6	
283	6	0	6	
284	6	0	6	
285	6	0	6	
286	6	0	6	
287	6	0	6	
[*,*,3]: 
	1		2		3	 := 
0	2	6	0	
1	2	6	0	
2	2	6	0	
3	2	6	0	
4	2	6	0	
5	2	6	0	
6	2	6	0	
7	2	6	0	
8	2	6	0	
9	2	6	0	
10	2	6	0	
11	2	6	0	
12	2	6	0	
13	2	6	0	
14	2	6	0	
15	2	6	0	
16	2	6	0	
17	2	6	0	
18	2	6	0	
19	2	6	0	
20	2	6	0	
21	2	6	0	
22	2	6	0	
23	2	6	0	
24	2	6	0	
25	2	6	0	
26	2	6	0	
27	2	6	0	
28	2	6	0	
29	2	6	0	
30	2	6	0	
31	2	6	0	
32	2	6	0	
33	2	6	0	
34	2	6	0	
35	2	6	0	
36	2	6	0	
37	2	6	0	
38	2	6	0	
39	2	6	0	
40	2	6	0	
41	2	6	0	
42	2	6	0	
43	2	6	0	
44	2	6	0	
45	2	6	0	
46	2	6	0	
47	2	6	0	
48	2	6	0	
49	2	6	0	
50	2	6	0	
51	2	6	0	
52	2	6	0	
53	2	6	0	
54	2	6	0	
55	2	6	0	
56	2	6	0	
57	2	6	0	
58	2	6	0	
59	2	6	0	
60	2	6	0	
61	2	6	0	
62	2	6	0	
63	2	6	0	
64	2	6	0	
65	2	6	0	
66	2	6	0	
67	2	6	0	
68	2	6	0	
69	2	6	0	
70	2	6	0	
71	2	6	0	
72	2	6	0	
73	2	6	0	
74	2	6	0	
75	2	6	0	
76	2	6	0	
77	2	6	0	
78	2	6	0	
79	2	6	0	
80	2	6	0	
81	2	6	0	
82	2	6	0	
83	2	6	0	
84	2	6	0	
85	2	6	0	
86	2	6	0	
87	2	6	0	
88	2	6	0	
89	2	6	0	
90	2	6	0	
91	2	6	0	
92	2	6	0	
93	2	6	0	
94	2	6	0	
95	2	6	0	
96	2	6	0	
97	2	6	0	
98	2	6	0	
99	2	6	0	
100	2	6	0	
101	2	6	0	
102	2	6	0	
103	2	6	0	
104	2	6	0	
105	2	6	0	
106	2	6	0	
107	2	6	0	
108	2	6	0	
109	2	6	0	
110	2	6	0	
111	2	6	0	
112	2	6	0	
113	2	6	0	
114	2	6	0	
115	2	6	0	
116	2	6	0	
117	2	6	0	
118	2	6	0	
119	2	6	0	
120	2	6	0	
121	2	6	0	
122	2	6	0	
123	2	6	0	
124	2	6	0	
125	2	6	0	
126	2	6	0	
127	2	6	0	
128	2	6	0	
129	2	6	0	
130	2	6	0	
131	2	6	0	
132	2	6	0	
133	2	6	0	
134	2	6	0	
135	2	6	0	
136	2	6	0	
137	2	6	0	
138	2	6	0	
139	2	6	0	
140	2	6	0	
141	2	6	0	
142	2	6	0	
143	2	6	0	
144	2	6	0	
145	2	6	0	
146	2	6	0	
147	2	6	0	
148	2	6	0	
149	2	6	0	
150	2	6	0	
151	2	6	0	
152	2	6	0	
153	2	6	0	
154	2	6	0	
155	2	6	0	
156	2	6	0	
157	2	6	0	
158	2	6	0	
159	2	6	0	
160	2	6	0	
161	2	6	0	
162	2	6	0	
163	2	6	0	
164	2	6	0	
165	2	6	0	
166	2	6	0	
167	2	6	0	
168	2	6	0	
169	2	6	0	
170	2	6	0	
171	2	6	0	
172	2	6	0	
173	2	6	0	
174	2	6	0	
175	2	6	0	
176	2	6	0	
177	2	6	0	
178	2	6	0	
179	2	6	0	
180	2	6	0	
181	2	6	0	
182	2	6	0	
183	2	6	0	
184	2	6	0	
185	2	6	0	
186	2	6	0	
187	2	6	0	
188	2	6	0	
189	2	6	0	
190	2	6	0	
191	2	6	0	
192	2	6	0	
193	2	6	0	
194	2	6	0	
195	2	6	0	
196	2	6	0	
197	2	6	0	
198	2	6	0	
199	2	6	0	
200	2	6	0	
201	2	6	0	
202	2	6	0	
203	2	6	0	
204	2	6	0	
205	2	6	0	
206	2	6	0	
207	2	6	0	
208	2	6	0	
209	2	6	0	
210	2	6	0	
211	2	6	0	
212	2	6	0	
213	2	6	0	
214	2	6	0	
215	2	6	0	
216	2	6	0	
217	2	6	0	
218	2	6	0	
219	2	6	0	
220	2	6	0	
221	2	6	0	
222	2	6	0	
223	2	6	0	
224	2	6	0	
225	2	6	0	
226	2	6	0	
227	2	6	0	
228	2	6	0	
229	2	6	0	
230	2	6	0	
231	2	6	0	
232	2	6	0	
233	2	6	0	
234	2	6	0	
235	2	6	0	
236	2	6	0	
237	2	6	0	
238	2	6	0	
239	2	6	0	
240	2	6	0	
241	2	6	0	
242	2	6	0	
243	2	6	0	
244	2	6	0	
245	2	6	0	
246	2	6	0	
247	2	6	0	
248	2	6	0	
249	2	6	0	
250	2	6	0	
251	2	6	0	
252	2	6	0	
253	2	6	0	
254	2	6	0	
255	2	6	0	
256	2	6	0	
257	2	6	0	
258	2	6	0	
259	2	6	0	
260	2	6	0	
261	2	6	0	
262	2	6	0	
263	2	6	0	
264	2	6	0	
265	2	6	0	
266	2	6	0	
267	2	6	0	
268	2	6	0	
269	2	6	0	
270	2	6	0	
271	2	6	0	
272	2	6	0	
273	2	6	0	
274	2	6	0	
275	2	6	0	
276	2	6	0	
277	2	6	0	
278	2	6	0	
279	2	6	0	
280	2	6	0	
281	2	6	0	
282	2	6	0	
283	2	6	0	
284	2	6	0	
285	2	6	0	
286	2	6	0	
287	2	6	0	
;
